c ind 14 15 16 17 18 19 20 21 22 23 24 25 26 27 28 29 30 31 32 33 34 35 36 37 38 39 40 41 42 43 44 45 0
p cnf 642 2048
-1 -3 0
2 -3 0
1 -2 3 0
-1 -5 0
2 -5 0
4 -5 0
1 -2 -4 5 0
-1 -7 0
2 -7 0
4 -7 0
6 -7 0
1 -2 -4 -6 7 0
-1 -9 0
2 -9 0
4 -9 0
6 -9 0
8 -9 0
1 -2 -4 -6 -8 9 0
-1 -11 0
2 -11 0
4 -11 0
6 -11 0
8 -11 0
10 -11 0
1 -2 -4 -6 -8 -10 11 0
-1 -13 0
12 -13 0
1 -12 13 0
-16 -17 -46 0
16 -17 46 0
17 46 0
-18 46 -47 0
-18 -46 47 0
18 47 0
-19 47 -48 0
-19 -47 48 0
19 48 0
-20 48 -49 0
-20 -48 49 0
20 49 0
-21 49 -50 0
-21 -49 50 0
21 50 0
-22 50 -51 0
-22 -50 51 0
22 51 0
-23 51 -52 0
-23 -51 52 0
23 52 0
-24 52 -53 0
-24 -52 53 0
24 53 0
-25 53 -54 0
-25 -53 54 0
25 54 0
-26 54 -55 0
-26 -54 55 0
26 55 0
-27 55 -56 0
-27 -55 56 0
27 56 0
-28 56 -57 0
-28 -56 57 0
28 57 0
-29 57 -58 0
-29 -57 58 0
29 58 0
-30 58 -59 0
-30 -58 59 0
30 59 0
-31 59 -60 0
-31 -59 60 0
31 60 0
-32 60 -61 0
-32 -60 61 0
32 61 0
-33 61 -62 0
-33 -61 62 0
33 62 0
-34 62 -63 0
-34 -62 63 0
34 63 0
-35 63 -64 0
-35 -63 64 0
35 64 0
-36 64 -65 0
-36 -64 65 0
36 65 0
-37 65 -66 0
-37 -65 66 0
37 66 0
-38 66 -67 0
-38 -66 67 0
38 67 0
-39 67 -68 0
-39 -67 68 0
39 68 0
-40 68 -69 0
-40 -68 69 0
40 69 0
-41 69 -70 0
-41 -69 70 0
41 70 0
-42 70 -71 0
-42 -70 71 0
42 71 0
-43 71 -72 0
-43 -71 72 0
43 72 0
-44 72 -73 0
-44 -72 73 0
44 73 0
-45 73 -74 0
-45 -73 74 0
45 74 0
-45 -74 -75 0
45 74 -75 0
-45 74 75 0
45 -74 75 0
14 -76 0
15 -76 0
-16 -76 0
17 -76 0
18 -76 0
19 -76 0
20 -76 0
21 -76 0
22 -76 0
23 -76 0
24 -76 0
25 -76 0
26 -76 0
27 -76 0
28 -76 0
29 -76 0
30 -76 0
31 -76 0
32 -76 0
33 -76 0
34 -76 0
35 -76 0
36 -76 0
37 -76 0
38 -76 0
39 -76 0
40 -76 0
41 -76 0
42 -76 0
43 -76 0
44 -76 0
45 -76 0
-14 -15 16 -17 -18 -19 -20 -21 -22 -23 -24 -25 -26 -27 -28 -29 -30 -31 -32 -33 -34 -35 -36 -37 -38 -39 -40 -41 -42 -43 -44 -45 76 0
-75 77 0
-76 77 0
75 76 -77 0
-15 -16 -78 0
15 -16 78 0
16 78 0
-17 -79 0
17 78 -79 0
17 -78 79 0
-18 -80 0
18 79 -80 0
18 -79 80 0
-19 -81 0
19 80 -81 0
19 -80 81 0
-20 -82 0
20 81 -82 0
20 -81 82 0
-21 -83 0
21 82 -83 0
21 -82 83 0
-22 -84 0
22 83 -84 0
22 -83 84 0
-23 -85 0
23 84 -85 0
23 -84 85 0
-24 -86 0
24 85 -86 0
24 -85 86 0
-25 -87 0
25 86 -87 0
25 -86 87 0
-26 -88 0
26 87 -88 0
26 -87 88 0
-27 -89 0
27 88 -89 0
27 -88 89 0
-28 -90 0
28 89 -90 0
28 -89 90 0
-29 -91 0
29 90 -91 0
29 -90 91 0
-30 -92 0
30 91 -92 0
30 -91 92 0
-31 -93 0
31 92 -93 0
31 -92 93 0
-32 -94 0
32 93 -94 0
32 -93 94 0
-33 -95 0
33 94 -95 0
33 -94 95 0
-34 -96 0
34 95 -96 0
34 -95 96 0
-35 -97 0
35 96 -97 0
35 -96 97 0
-36 -98 0
36 97 -98 0
36 -97 98 0
-37 -99 0
37 98 -99 0
37 -98 99 0
-38 -100 0
38 99 -100 0
38 -99 100 0
-39 -101 0
39 100 -101 0
39 -100 101 0
-40 -102 0
40 101 -102 0
40 -101 102 0
-41 -103 0
41 102 -103 0
41 -102 103 0
-42 -104 0
42 103 -104 0
42 -103 104 0
-43 -105 0
43 104 -105 0
43 -104 105 0
-44 -106 0
44 105 -106 0
44 -105 106 0
-45 -107 0
45 106 -107 0
45 -106 107 0
45 -107 -108 0
-45 107 -108 0
45 107 108 0
-45 -107 108 0
14 -109 0
-15 -109 0
16 -109 0
-17 -109 0
-18 -109 0
-19 -109 0
-20 -109 0
-21 -109 0
-22 -109 0
-23 -109 0
-24 -109 0
-25 -109 0
-26 -109 0
-27 -109 0
-28 -109 0
-29 -109 0
-30 -109 0
-31 -109 0
-32 -109 0
-33 -109 0
-34 -109 0
-35 -109 0
-36 -109 0
-37 -109 0
-38 -109 0
-39 -109 0
-40 -109 0
-41 -109 0
-42 -109 0
-43 -109 0
-44 -109 0
-45 -109 0
-14 15 -16 17 18 19 20 21 22 23 24 25 26 27 28 29 30 31 32 33 34 35 36 37 38 39 40 41 42 43 44 45 109 0
-108 110 0
-109 110 0
108 109 -110 0
77 -111 0
-110 -111 0
-77 110 111 0
-1 111 -112 0
1 -111 -112 0
-1 -111 112 0
1 111 112 0
-112 0
-16 -113 0
-15 16 -113 0
15 16 113 0
-17 -114 0
17 113 -114 0
17 -113 114 0
-18 -115 0
18 114 -115 0
18 -114 115 0
-19 -116 0
19 115 -116 0
19 -115 116 0
-20 -117 0
20 116 -117 0
20 -116 117 0
-21 -118 0
21 117 -118 0
21 -117 118 0
-22 -119 0
22 118 -119 0
22 -118 119 0
-23 -120 0
23 119 -120 0
23 -119 120 0
-24 -121 0
24 120 -121 0
24 -120 121 0
-25 -122 0
25 121 -122 0
25 -121 122 0
-26 -123 0
26 122 -123 0
26 -122 123 0
-27 -124 0
27 123 -124 0
27 -123 124 0
-28 -125 0
28 124 -125 0
28 -124 125 0
-29 -126 0
29 125 -126 0
29 -125 126 0
-30 -127 0
30 126 -127 0
30 -126 127 0
-31 -128 0
31 127 -128 0
31 -127 128 0
-32 -129 0
32 128 -129 0
32 -128 129 0
-33 -130 0
33 129 -130 0
33 -129 130 0
-34 -131 0
34 130 -131 0
34 -130 131 0
-35 -132 0
35 131 -132 0
35 -131 132 0
-36 -133 0
36 132 -133 0
36 -132 133 0
-37 -134 0
37 133 -134 0
37 -133 134 0
-38 -135 0
38 134 -135 0
38 -134 135 0
-39 -136 0
39 135 -136 0
39 -135 136 0
-40 -137 0
40 136 -137 0
40 -136 137 0
-41 -138 0
41 137 -138 0
41 -137 138 0
-42 -139 0
42 138 -139 0
42 -138 139 0
-43 -140 0
43 139 -140 0
43 -139 140 0
-44 -141 0
44 140 -141 0
44 -140 141 0
-45 -142 0
45 141 -142 0
45 -141 142 0
45 -142 -143 0
-45 142 -143 0
45 142 143 0
-45 -142 143 0
14 -144 0
-15 -144 0
-16 -144 0
-17 -144 0
-18 -144 0
-19 -144 0
-20 -144 0
-21 -144 0
-22 -144 0
-23 -144 0
-24 -144 0
-25 -144 0
-26 -144 0
-27 -144 0
-28 -144 0
-29 -144 0
-30 -144 0
-31 -144 0
-32 -144 0
-33 -144 0
-34 -144 0
-35 -144 0
-36 -144 0
-37 -144 0
-38 -144 0
-39 -144 0
-40 -144 0
-41 -144 0
-42 -144 0
-43 -144 0
-44 -144 0
-45 -144 0
-14 15 16 17 18 19 20 21 22 23 24 25 26 27 28 29 30 31 32 33 34 35 36 37 38 39 40 41 42 43 44 45 144 0
-143 145 0
-144 145 0
143 144 -145 0
-2 -145 -146 0
2 145 -146 0
-2 145 146 0
2 -145 146 0
-146 0
-15 147 0
-14 147 0
14 15 -147 0
-14 -15 -148 0
14 15 -148 0
14 -15 148 0
-14 15 148 0
-16 149 0
-147 149 0
16 147 -149 0
-16 -147 -150 0
16 147 -150 0
-16 147 150 0
16 -147 150 0
-17 151 0
-149 151 0
17 149 -151 0
-17 -149 -152 0
17 149 -152 0
-17 149 152 0
17 -149 152 0
-18 153 0
-151 153 0
18 151 -153 0
-18 -151 -154 0
18 151 -154 0
-18 151 154 0
18 -151 154 0
-19 155 0
-153 155 0
19 153 -155 0
-19 -153 -156 0
19 153 -156 0
-19 153 156 0
19 -153 156 0
-20 157 0
-155 157 0
20 155 -157 0
-20 -155 -158 0
20 155 -158 0
-20 155 158 0
20 -155 158 0
-21 159 0
-157 159 0
21 157 -159 0
-21 -157 -160 0
21 157 -160 0
-21 157 160 0
21 -157 160 0
-22 161 0
-159 161 0
22 159 -161 0
-22 -159 -162 0
22 159 -162 0
-22 159 162 0
22 -159 162 0
-23 163 0
-161 163 0
23 161 -163 0
-23 -161 -164 0
23 161 -164 0
-23 161 164 0
23 -161 164 0
-24 165 0
-163 165 0
24 163 -165 0
-24 -163 -166 0
24 163 -166 0
-24 163 166 0
24 -163 166 0
-25 167 0
-165 167 0
25 165 -167 0
-25 -165 -168 0
25 165 -168 0
-25 165 168 0
25 -165 168 0
-26 169 0
-167 169 0
26 167 -169 0
-26 -167 -170 0
26 167 -170 0
-26 167 170 0
26 -167 170 0
-27 171 0
-169 171 0
27 169 -171 0
-27 -169 -172 0
27 169 -172 0
-27 169 172 0
27 -169 172 0
-28 173 0
-171 173 0
28 171 -173 0
-28 -171 -174 0
28 171 -174 0
-28 171 174 0
28 -171 174 0
-29 175 0
-173 175 0
29 173 -175 0
-29 -173 -176 0
29 173 -176 0
-29 173 176 0
29 -173 176 0
-30 177 0
-175 177 0
30 175 -177 0
-30 -175 -178 0
30 175 -178 0
-30 175 178 0
30 -175 178 0
-31 179 0
-177 179 0
31 177 -179 0
-31 -177 -180 0
31 177 -180 0
-31 177 180 0
31 -177 180 0
-32 181 0
-179 181 0
32 179 -181 0
-32 -179 -182 0
32 179 -182 0
-32 179 182 0
32 -179 182 0
-33 183 0
-181 183 0
33 181 -183 0
-33 -181 -184 0
33 181 -184 0
-33 181 184 0
33 -181 184 0
-34 185 0
-183 185 0
34 183 -185 0
-34 -183 -186 0
34 183 -186 0
-34 183 186 0
34 -183 186 0
-35 187 0
-185 187 0
35 185 -187 0
-35 -185 -188 0
35 185 -188 0
-35 185 188 0
35 -185 188 0
-36 189 0
-187 189 0
36 187 -189 0
-36 -187 -190 0
36 187 -190 0
-36 187 190 0
36 -187 190 0
-37 191 0
-189 191 0
37 189 -191 0
-37 -189 -192 0
37 189 -192 0
-37 189 192 0
37 -189 192 0
-38 193 0
-191 193 0
38 191 -193 0
-38 -191 -194 0
38 191 -194 0
-38 191 194 0
38 -191 194 0
-39 195 0
-193 195 0
39 193 -195 0
-39 -193 -196 0
39 193 -196 0
-39 193 196 0
39 -193 196 0
-40 197 0
-195 197 0
40 195 -197 0
-40 -195 -198 0
40 195 -198 0
-40 195 198 0
40 -195 198 0
-41 199 0
-197 199 0
41 197 -199 0
-41 -197 -200 0
41 197 -200 0
-41 197 200 0
41 -197 200 0
-42 201 0
-199 201 0
42 199 -201 0
-42 -199 -202 0
42 199 -202 0
-42 199 202 0
42 -199 202 0
-43 203 0
-201 203 0
43 201 -203 0
-43 -201 -204 0
43 201 -204 0
-43 201 204 0
43 -201 204 0
-44 205 0
-203 205 0
44 203 -205 0
-44 -203 -206 0
44 203 -206 0
-44 203 206 0
44 -203 206 0
-45 207 0
-205 207 0
45 205 -207 0
-45 -205 -208 0
45 205 -208 0
-45 205 208 0
45 -205 208 0
150 -209 0
148 -150 -209 0
-148 -150 209 0
152 -210 0
-152 209 -210 0
-152 -209 210 0
154 -211 0
-154 210 -211 0
-154 -210 211 0
156 -212 0
-156 211 -212 0
-156 -211 212 0
158 -213 0
-158 212 -213 0
-158 -212 213 0
160 -214 0
-160 213 -214 0
-160 -213 214 0
162 -215 0
-162 214 -215 0
-162 -214 215 0
164 -216 0
-164 215 -216 0
-164 -215 216 0
166 -217 0
-166 216 -217 0
-166 -216 217 0
168 -218 0
-168 217 -218 0
-168 -217 218 0
170 -219 0
-170 218 -219 0
-170 -218 219 0
172 -220 0
-172 219 -220 0
-172 -219 220 0
174 -221 0
-174 220 -221 0
-174 -220 221 0
176 -222 0
-176 221 -222 0
-176 -221 222 0
178 -223 0
-178 222 -223 0
-178 -222 223 0
180 -224 0
-180 223 -224 0
-180 -223 224 0
182 -225 0
-182 224 -225 0
-182 -224 225 0
184 -226 0
-184 225 -226 0
-184 -225 226 0
186 -227 0
-186 226 -227 0
-186 -226 227 0
188 -228 0
-188 227 -228 0
-188 -227 228 0
190 -229 0
-190 228 -229 0
-190 -228 229 0
192 -230 0
-192 229 -230 0
-192 -229 230 0
194 -231 0
-194 230 -231 0
-194 -230 231 0
196 -232 0
-196 231 -232 0
-196 -231 232 0
198 -233 0
-198 232 -233 0
-198 -232 233 0
200 -234 0
-200 233 -234 0
-200 -233 234 0
202 -235 0
-202 234 -235 0
-202 -234 235 0
204 -236 0
-204 235 -236 0
-204 -235 236 0
206 -237 0
-206 236 -237 0
-206 -236 237 0
208 -238 0
-208 237 -238 0
-208 -237 238 0
-208 -238 -239 0
208 238 -239 0
-208 238 239 0
208 -238 239 0
-14 -240 0
148 -240 0
150 -240 0
152 -240 0
154 -240 0
156 -240 0
158 -240 0
160 -240 0
162 -240 0
164 -240 0
166 -240 0
168 -240 0
170 -240 0
172 -240 0
174 -240 0
176 -240 0
178 -240 0
180 -240 0
182 -240 0
184 -240 0
186 -240 0
188 -240 0
190 -240 0
192 -240 0
194 -240 0
196 -240 0
198 -240 0
200 -240 0
202 -240 0
204 -240 0
206 -240 0
208 -240 0
14 -148 -150 -152 -154 -156 -158 -160 -162 -164 -166 -168 -170 -172 -174 -176 -178 -180 -182 -184 -186 -188 -190 -192 -194 -196 -198 -200 -202 -204 -206 -208 240 0
-239 241 0
-240 241 0
239 240 -241 0
-4 -241 -242 0
4 241 -242 0
-4 241 242 0
4 -241 242 0
-242 0
148 243 0
14 243 0
-14 -148 -243 0
14 148 -244 0
-14 -148 -244 0
-14 148 244 0
14 -148 244 0
150 245 0
-243 245 0
-150 243 -245 0
150 -243 -246 0
-150 243 -246 0
150 243 246 0
-150 -243 246 0
152 247 0
-245 247 0
-152 245 -247 0
152 -245 -248 0
-152 245 -248 0
152 245 248 0
-152 -245 248 0
154 249 0
-247 249 0
-154 247 -249 0
154 -247 -250 0
-154 247 -250 0
154 247 250 0
-154 -247 250 0
156 251 0
-249 251 0
-156 249 -251 0
156 -249 -252 0
-156 249 -252 0
156 249 252 0
-156 -249 252 0
158 253 0
-251 253 0
-158 251 -253 0
158 -251 -254 0
-158 251 -254 0
158 251 254 0
-158 -251 254 0
160 255 0
-253 255 0
-160 253 -255 0
160 -253 -256 0
-160 253 -256 0
160 253 256 0
-160 -253 256 0
162 257 0
-255 257 0
-162 255 -257 0
162 -255 -258 0
-162 255 -258 0
162 255 258 0
-162 -255 258 0
164 259 0
-257 259 0
-164 257 -259 0
164 -257 -260 0
-164 257 -260 0
164 257 260 0
-164 -257 260 0
166 261 0
-259 261 0
-166 259 -261 0
166 -259 -262 0
-166 259 -262 0
166 259 262 0
-166 -259 262 0
168 263 0
-261 263 0
-168 261 -263 0
168 -261 -264 0
-168 261 -264 0
168 261 264 0
-168 -261 264 0
170 265 0
-263 265 0
-170 263 -265 0
170 -263 -266 0
-170 263 -266 0
170 263 266 0
-170 -263 266 0
172 267 0
-265 267 0
-172 265 -267 0
172 -265 -268 0
-172 265 -268 0
172 265 268 0
-172 -265 268 0
174 269 0
-267 269 0
-174 267 -269 0
174 -267 -270 0
-174 267 -270 0
174 267 270 0
-174 -267 270 0
176 271 0
-269 271 0
-176 269 -271 0
176 -269 -272 0
-176 269 -272 0
176 269 272 0
-176 -269 272 0
178 273 0
-271 273 0
-178 271 -273 0
178 -271 -274 0
-178 271 -274 0
178 271 274 0
-178 -271 274 0
180 275 0
-273 275 0
-180 273 -275 0
180 -273 -276 0
-180 273 -276 0
180 273 276 0
-180 -273 276 0
182 277 0
-275 277 0
-182 275 -277 0
182 -275 -278 0
-182 275 -278 0
182 275 278 0
-182 -275 278 0
184 279 0
-277 279 0
-184 277 -279 0
184 -277 -280 0
-184 277 -280 0
184 277 280 0
-184 -277 280 0
186 281 0
-279 281 0
-186 279 -281 0
186 -279 -282 0
-186 279 -282 0
186 279 282 0
-186 -279 282 0
188 283 0
-281 283 0
-188 281 -283 0
188 -281 -284 0
-188 281 -284 0
188 281 284 0
-188 -281 284 0
190 285 0
-283 285 0
-190 283 -285 0
190 -283 -286 0
-190 283 -286 0
190 283 286 0
-190 -283 286 0
192 287 0
-285 287 0
-192 285 -287 0
192 -285 -288 0
-192 285 -288 0
192 285 288 0
-192 -285 288 0
194 289 0
-287 289 0
-194 287 -289 0
194 -287 -290 0
-194 287 -290 0
194 287 290 0
-194 -287 290 0
196 291 0
-289 291 0
-196 289 -291 0
196 -289 -292 0
-196 289 -292 0
196 289 292 0
-196 -289 292 0
198 293 0
-291 293 0
-198 291 -293 0
198 -291 -294 0
-198 291 -294 0
198 291 294 0
-198 -291 294 0
200 295 0
-293 295 0
-200 293 -295 0
200 -293 -296 0
-200 293 -296 0
200 293 296 0
-200 -293 296 0
202 297 0
-295 297 0
-202 295 -297 0
202 -295 -298 0
-202 295 -298 0
202 295 298 0
-202 -295 298 0
204 299 0
-297 299 0
-204 297 -299 0
204 -297 -300 0
-204 297 -300 0
204 297 300 0
-204 -297 300 0
206 301 0
-299 301 0
-206 299 -301 0
206 -299 -302 0
-206 299 -302 0
206 299 302 0
-206 -299 302 0
208 303 0
-301 303 0
-208 301 -303 0
208 -301 -304 0
-208 301 -304 0
208 301 304 0
-208 -301 304 0
246 -305 0
244 -246 -305 0
-244 -246 305 0
248 -306 0
-248 305 -306 0
-248 -305 306 0
250 -307 0
-250 306 -307 0
-250 -306 307 0
252 -308 0
-252 307 -308 0
-252 -307 308 0
254 -309 0
-254 308 -309 0
-254 -308 309 0
256 -310 0
-256 309 -310 0
-256 -309 310 0
258 -311 0
-258 310 -311 0
-258 -310 311 0
260 -312 0
-260 311 -312 0
-260 -311 312 0
262 -313 0
-262 312 -313 0
-262 -312 313 0
264 -314 0
-264 313 -314 0
-264 -313 314 0
266 -315 0
-266 314 -315 0
-266 -314 315 0
268 -316 0
-268 315 -316 0
-268 -315 316 0
270 -317 0
-270 316 -317 0
-270 -316 317 0
272 -318 0
-272 317 -318 0
-272 -317 318 0
274 -319 0
-274 318 -319 0
-274 -318 319 0
276 -320 0
-276 319 -320 0
-276 -319 320 0
278 -321 0
-278 320 -321 0
-278 -320 321 0
280 -322 0
-280 321 -322 0
-280 -321 322 0
282 -323 0
-282 322 -323 0
-282 -322 323 0
284 -324 0
-284 323 -324 0
-284 -323 324 0
286 -325 0
-286 324 -325 0
-286 -324 325 0
288 -326 0
-288 325 -326 0
-288 -325 326 0
290 -327 0
-290 326 -327 0
-290 -326 327 0
292 -328 0
-292 327 -328 0
-292 -327 328 0
294 -329 0
-294 328 -329 0
-294 -328 329 0
296 -330 0
-296 329 -330 0
-296 -329 330 0
298 -331 0
-298 330 -331 0
-298 -330 331 0
300 -332 0
-300 331 -332 0
-300 -331 332 0
302 -333 0
-302 332 -333 0
-302 -332 333 0
304 -334 0
-304 333 -334 0
-304 -333 334 0
-304 -334 -335 0
304 334 -335 0
-304 334 335 0
304 -334 335 0
14 -336 0
244 -336 0
246 -336 0
248 -336 0
250 -336 0
252 -336 0
254 -336 0
256 -336 0
258 -336 0
260 -336 0
262 -336 0
264 -336 0
266 -336 0
268 -336 0
270 -336 0
272 -336 0
274 -336 0
276 -336 0
278 -336 0
280 -336 0
282 -336 0
284 -336 0
286 -336 0
288 -336 0
290 -336 0
292 -336 0
294 -336 0
296 -336 0
298 -336 0
300 -336 0
302 -336 0
304 -336 0
-14 -244 -246 -248 -250 -252 -254 -256 -258 -260 -262 -264 -266 -268 -270 -272 -274 -276 -278 -280 -282 -284 -286 -288 -290 -292 -294 -296 -298 -300 -302 -304 336 0
-335 337 0
-336 337 0
335 336 -337 0
-6 -337 -338 0
6 337 -338 0
-6 337 338 0
6 -337 338 0
-338 0
244 339 0
-14 339 0
14 -244 -339 0
-14 244 -340 0
14 -244 -340 0
14 244 340 0
-14 -244 340 0
246 341 0
-339 341 0
-246 339 -341 0
246 -339 -342 0
-246 339 -342 0
246 339 342 0
-246 -339 342 0
248 343 0
-341 343 0
-248 341 -343 0
248 -341 -344 0
-248 341 -344 0
248 341 344 0
-248 -341 344 0
250 345 0
-343 345 0
-250 343 -345 0
250 -343 -346 0
-250 343 -346 0
250 343 346 0
-250 -343 346 0
252 347 0
-345 347 0
-252 345 -347 0
252 -345 -348 0
-252 345 -348 0
252 345 348 0
-252 -345 348 0
254 349 0
-347 349 0
-254 347 -349 0
254 -347 -350 0
-254 347 -350 0
254 347 350 0
-254 -347 350 0
256 351 0
-349 351 0
-256 349 -351 0
256 -349 -352 0
-256 349 -352 0
256 349 352 0
-256 -349 352 0
258 353 0
-351 353 0
-258 351 -353 0
258 -351 -354 0
-258 351 -354 0
258 351 354 0
-258 -351 354 0
260 355 0
-353 355 0
-260 353 -355 0
260 -353 -356 0
-260 353 -356 0
260 353 356 0
-260 -353 356 0
262 357 0
-355 357 0
-262 355 -357 0
262 -355 -358 0
-262 355 -358 0
262 355 358 0
-262 -355 358 0
264 359 0
-357 359 0
-264 357 -359 0
264 -357 -360 0
-264 357 -360 0
264 357 360 0
-264 -357 360 0
266 361 0
-359 361 0
-266 359 -361 0
266 -359 -362 0
-266 359 -362 0
266 359 362 0
-266 -359 362 0
268 363 0
-361 363 0
-268 361 -363 0
268 -361 -364 0
-268 361 -364 0
268 361 364 0
-268 -361 364 0
270 365 0
-363 365 0
-270 363 -365 0
270 -363 -366 0
-270 363 -366 0
270 363 366 0
-270 -363 366 0
272 367 0
-365 367 0
-272 365 -367 0
272 -365 -368 0
-272 365 -368 0
272 365 368 0
-272 -365 368 0
274 369 0
-367 369 0
-274 367 -369 0
274 -367 -370 0
-274 367 -370 0
274 367 370 0
-274 -367 370 0
276 371 0
-369 371 0
-276 369 -371 0
276 -369 -372 0
-276 369 -372 0
276 369 372 0
-276 -369 372 0
278 373 0
-371 373 0
-278 371 -373 0
278 -371 -374 0
-278 371 -374 0
278 371 374 0
-278 -371 374 0
280 375 0
-373 375 0
-280 373 -375 0
280 -373 -376 0
-280 373 -376 0
280 373 376 0
-280 -373 376 0
282 377 0
-375 377 0
-282 375 -377 0
282 -375 -378 0
-282 375 -378 0
282 375 378 0
-282 -375 378 0
284 379 0
-377 379 0
-284 377 -379 0
284 -377 -380 0
-284 377 -380 0
284 377 380 0
-284 -377 380 0
286 381 0
-379 381 0
-286 379 -381 0
286 -379 -382 0
-286 379 -382 0
286 379 382 0
-286 -379 382 0
288 383 0
-381 383 0
-288 381 -383 0
288 -381 -384 0
-288 381 -384 0
288 381 384 0
-288 -381 384 0
290 385 0
-383 385 0
-290 383 -385 0
290 -383 -386 0
-290 383 -386 0
290 383 386 0
-290 -383 386 0
292 387 0
-385 387 0
-292 385 -387 0
292 -385 -388 0
-292 385 -388 0
292 385 388 0
-292 -385 388 0
294 389 0
-387 389 0
-294 387 -389 0
294 -387 -390 0
-294 387 -390 0
294 387 390 0
-294 -387 390 0
296 391 0
-389 391 0
-296 389 -391 0
296 -389 -392 0
-296 389 -392 0
296 389 392 0
-296 -389 392 0
298 393 0
-391 393 0
-298 391 -393 0
298 -391 -394 0
-298 391 -394 0
298 391 394 0
-298 -391 394 0
300 395 0
-393 395 0
-300 393 -395 0
300 -393 -396 0
-300 393 -396 0
300 393 396 0
-300 -393 396 0
302 397 0
-395 397 0
-302 395 -397 0
302 -395 -398 0
-302 395 -398 0
302 395 398 0
-302 -395 398 0
304 399 0
-397 399 0
-304 397 -399 0
304 -397 -400 0
-304 397 -400 0
304 397 400 0
-304 -397 400 0
342 -401 0
340 -342 -401 0
-340 -342 401 0
344 -402 0
-344 401 -402 0
-344 -401 402 0
346 -403 0
-346 402 -403 0
-346 -402 403 0
348 -404 0
-348 403 -404 0
-348 -403 404 0
350 -405 0
-350 404 -405 0
-350 -404 405 0
352 -406 0
-352 405 -406 0
-352 -405 406 0
354 -407 0
-354 406 -407 0
-354 -406 407 0
356 -408 0
-356 407 -408 0
-356 -407 408 0
358 -409 0
-358 408 -409 0
-358 -408 409 0
360 -410 0
-360 409 -410 0
-360 -409 410 0
362 -411 0
-362 410 -411 0
-362 -410 411 0
364 -412 0
-364 411 -412 0
-364 -411 412 0
366 -413 0
-366 412 -413 0
-366 -412 413 0
368 -414 0
-368 413 -414 0
-368 -413 414 0
370 -415 0
-370 414 -415 0
-370 -414 415 0
372 -416 0
-372 415 -416 0
-372 -415 416 0
374 -417 0
-374 416 -417 0
-374 -416 417 0
376 -418 0
-376 417 -418 0
-376 -417 418 0
378 -419 0
-378 418 -419 0
-378 -418 419 0
380 -420 0
-380 419 -420 0
-380 -419 420 0
382 -421 0
-382 420 -421 0
-382 -420 421 0
384 -422 0
-384 421 -422 0
-384 -421 422 0
386 -423 0
-386 422 -423 0
-386 -422 423 0
388 -424 0
-388 423 -424 0
-388 -423 424 0
390 -425 0
-390 424 -425 0
-390 -424 425 0
392 -426 0
-392 425 -426 0
-392 -425 426 0
394 -427 0
-394 426 -427 0
-394 -426 427 0
396 -428 0
-396 427 -428 0
-396 -427 428 0
398 -429 0
-398 428 -429 0
-398 -428 429 0
400 -430 0
-400 429 -430 0
-400 -429 430 0
-400 -430 -431 0
400 430 -431 0
-400 430 431 0
400 -430 431 0
-14 -432 0
340 -432 0
342 -432 0
344 -432 0
346 -432 0
348 -432 0
350 -432 0
352 -432 0
354 -432 0
356 -432 0
358 -432 0
360 -432 0
362 -432 0
364 -432 0
366 -432 0
368 -432 0
370 -432 0
372 -432 0
374 -432 0
376 -432 0
378 -432 0
380 -432 0
382 -432 0
384 -432 0
386 -432 0
388 -432 0
390 -432 0
392 -432 0
394 -432 0
396 -432 0
398 -432 0
400 -432 0
14 -340 -342 -344 -346 -348 -350 -352 -354 -356 -358 -360 -362 -364 -366 -368 -370 -372 -374 -376 -378 -380 -382 -384 -386 -388 -390 -392 -394 -396 -398 -400 432 0
-431 433 0
-432 433 0
431 432 -433 0
-8 -433 -434 0
8 433 -434 0
-8 433 434 0
8 -433 434 0
-434 0
340 435 0
14 435 0
-14 -340 -435 0
14 340 -436 0
-14 -340 -436 0
-14 340 436 0
14 -340 436 0
342 437 0
-435 437 0
-342 435 -437 0
342 -435 -438 0
-342 435 -438 0
342 435 438 0
-342 -435 438 0
344 439 0
-437 439 0
-344 437 -439 0
344 -437 -440 0
-344 437 -440 0
344 437 440 0
-344 -437 440 0
346 441 0
-439 441 0
-346 439 -441 0
346 -439 -442 0
-346 439 -442 0
346 439 442 0
-346 -439 442 0
348 443 0
-441 443 0
-348 441 -443 0
348 -441 -444 0
-348 441 -444 0
348 441 444 0
-348 -441 444 0
350 445 0
-443 445 0
-350 443 -445 0
350 -443 -446 0
-350 443 -446 0
350 443 446 0
-350 -443 446 0
352 447 0
-445 447 0
-352 445 -447 0
352 -445 -448 0
-352 445 -448 0
352 445 448 0
-352 -445 448 0
354 449 0
-447 449 0
-354 447 -449 0
354 -447 -450 0
-354 447 -450 0
354 447 450 0
-354 -447 450 0
356 451 0
-449 451 0
-356 449 -451 0
356 -449 -452 0
-356 449 -452 0
356 449 452 0
-356 -449 452 0
358 453 0
-451 453 0
-358 451 -453 0
358 -451 -454 0
-358 451 -454 0
358 451 454 0
-358 -451 454 0
360 455 0
-453 455 0
-360 453 -455 0
360 -453 -456 0
-360 453 -456 0
360 453 456 0
-360 -453 456 0
362 457 0
-455 457 0
-362 455 -457 0
362 -455 -458 0
-362 455 -458 0
362 455 458 0
-362 -455 458 0
364 459 0
-457 459 0
-364 457 -459 0
364 -457 -460 0
-364 457 -460 0
364 457 460 0
-364 -457 460 0
366 461 0
-459 461 0
-366 459 -461 0
366 -459 -462 0
-366 459 -462 0
366 459 462 0
-366 -459 462 0
368 463 0
-461 463 0
-368 461 -463 0
368 -461 -464 0
-368 461 -464 0
368 461 464 0
-368 -461 464 0
370 465 0
-463 465 0
-370 463 -465 0
370 -463 -466 0
-370 463 -466 0
370 463 466 0
-370 -463 466 0
372 467 0
-465 467 0
-372 465 -467 0
372 -465 -468 0
-372 465 -468 0
372 465 468 0
-372 -465 468 0
374 469 0
-467 469 0
-374 467 -469 0
374 -467 -470 0
-374 467 -470 0
374 467 470 0
-374 -467 470 0
376 471 0
-469 471 0
-376 469 -471 0
376 -469 -472 0
-376 469 -472 0
376 469 472 0
-376 -469 472 0
378 473 0
-471 473 0
-378 471 -473 0
378 -471 -474 0
-378 471 -474 0
378 471 474 0
-378 -471 474 0
380 475 0
-473 475 0
-380 473 -475 0
380 -473 -476 0
-380 473 -476 0
380 473 476 0
-380 -473 476 0
382 477 0
-475 477 0
-382 475 -477 0
382 -475 -478 0
-382 475 -478 0
382 475 478 0
-382 -475 478 0
384 479 0
-477 479 0
-384 477 -479 0
384 -477 -480 0
-384 477 -480 0
384 477 480 0
-384 -477 480 0
386 481 0
-479 481 0
-386 479 -481 0
386 -479 -482 0
-386 479 -482 0
386 479 482 0
-386 -479 482 0
388 483 0
-481 483 0
-388 481 -483 0
388 -481 -484 0
-388 481 -484 0
388 481 484 0
-388 -481 484 0
390 485 0
-483 485 0
-390 483 -485 0
390 -483 -486 0
-390 483 -486 0
390 483 486 0
-390 -483 486 0
392 487 0
-485 487 0
-392 485 -487 0
392 -485 -488 0
-392 485 -488 0
392 485 488 0
-392 -485 488 0
394 489 0
-487 489 0
-394 487 -489 0
394 -487 -490 0
-394 487 -490 0
394 487 490 0
-394 -487 490 0
396 491 0
-489 491 0
-396 489 -491 0
396 -489 -492 0
-396 489 -492 0
396 489 492 0
-396 -489 492 0
398 493 0
-491 493 0
-398 491 -493 0
398 -491 -494 0
-398 491 -494 0
398 491 494 0
-398 -491 494 0
400 495 0
-493 495 0
-400 493 -495 0
400 -493 -496 0
-400 493 -496 0
400 493 496 0
-400 -493 496 0
438 -497 0
436 -438 -497 0
-436 -438 497 0
440 -498 0
-440 497 -498 0
-440 -497 498 0
442 -499 0
-442 498 -499 0
-442 -498 499 0
444 -500 0
-444 499 -500 0
-444 -499 500 0
446 -501 0
-446 500 -501 0
-446 -500 501 0
448 -502 0
-448 501 -502 0
-448 -501 502 0
450 -503 0
-450 502 -503 0
-450 -502 503 0
452 -504 0
-452 503 -504 0
-452 -503 504 0
454 -505 0
-454 504 -505 0
-454 -504 505 0
456 -506 0
-456 505 -506 0
-456 -505 506 0
458 -507 0
-458 506 -507 0
-458 -506 507 0
460 -508 0
-460 507 -508 0
-460 -507 508 0
462 -509 0
-462 508 -509 0
-462 -508 509 0
464 -510 0
-464 509 -510 0
-464 -509 510 0
466 -511 0
-466 510 -511 0
-466 -510 511 0
468 -512 0
-468 511 -512 0
-468 -511 512 0
470 -513 0
-470 512 -513 0
-470 -512 513 0
472 -514 0
-472 513 -514 0
-472 -513 514 0
474 -515 0
-474 514 -515 0
-474 -514 515 0
476 -516 0
-476 515 -516 0
-476 -515 516 0
478 -517 0
-478 516 -517 0
-478 -516 517 0
480 -518 0
-480 517 -518 0
-480 -517 518 0
482 -519 0
-482 518 -519 0
-482 -518 519 0
484 -520 0
-484 519 -520 0
-484 -519 520 0
486 -521 0
-486 520 -521 0
-486 -520 521 0
488 -522 0
-488 521 -522 0
-488 -521 522 0
490 -523 0
-490 522 -523 0
-490 -522 523 0
492 -524 0
-492 523 -524 0
-492 -523 524 0
494 -525 0
-494 524 -525 0
-494 -524 525 0
496 -526 0
-496 525 -526 0
-496 -525 526 0
-496 -526 -527 0
496 526 -527 0
-496 526 527 0
496 -526 527 0
14 -528 0
436 -528 0
438 -528 0
440 -528 0
442 -528 0
444 -528 0
446 -528 0
448 -528 0
450 -528 0
452 -528 0
454 -528 0
456 -528 0
458 -528 0
460 -528 0
462 -528 0
464 -528 0
466 -528 0
468 -528 0
470 -528 0
472 -528 0
474 -528 0
476 -528 0
478 -528 0
480 -528 0
482 -528 0
484 -528 0
486 -528 0
488 -528 0
490 -528 0
492 -528 0
494 -528 0
496 -528 0
-14 -436 -438 -440 -442 -444 -446 -448 -450 -452 -454 -456 -458 -460 -462 -464 -466 -468 -470 -472 -474 -476 -478 -480 -482 -484 -486 -488 -490 -492 -494 -496 528 0
-527 529 0
-528 529 0
527 528 -529 0
-10 -529 -530 0
10 529 -530 0
-10 529 530 0
10 -529 530 0
-530 0
8 531 0
-10 531 0
-8 10 -531 0
6 -532 0
531 -532 0
-6 -531 532 0
6 533 0
8 533 0
-6 -8 -533 0
6 -534 0
8 -534 0
-6 -8 534 0
4 535 0
-532 535 0
-4 532 -535 0
4 -536 0
533 -536 0
-4 -533 536 0
4 -537 0
534 -537 0
-4 -534 537 0
2 -538 0
535 -538 0
-2 -535 538 0
2 -539 0
536 -539 0
-2 -536 539 0
2 -540 0
537 -540 0
-2 -537 540 0
-14 -538 -541 0
14 538 -541 0
14 -538 541 0
-14 538 541 0
-15 -539 -542 0
15 539 -542 0
15 -539 542 0
-15 539 542 0
-16 -540 -543 0
16 540 -543 0
16 -540 543 0
-16 540 543 0
-541 -544 0
-542 -544 0
-543 -544 0
-17 -544 0
-18 -544 0
-19 -544 0
-20 -544 0
-21 -544 0
-22 -544 0
-23 -544 0
-24 -544 0
-25 -544 0
-26 -544 0
-27 -544 0
-28 -544 0
-29 -544 0
-30 -544 0
-31 -544 0
-32 -544 0
-33 -544 0
-34 -544 0
-35 -544 0
-36 -544 0
-37 -544 0
-38 -544 0
-39 -544 0
-40 -544 0
-41 -544 0
-42 -544 0
-43 -544 0
-44 -544 0
-45 -544 0
17 18 19 20 21 22 23 24 25 26 27 28 29 30 31 32 33 34 35 36 37 38 39 40 41 42 43 44 45 541 542 543 544 0
-12 544 -545 0
12 -544 -545 0
-12 -544 545 0
12 544 545 0
-545 0
-11 0
-1 -546 0
1 546 0
546 0
14 -547 0
-14 547 0
15 -548 0
-15 548 0
16 -549 0
-16 549 0
17 -550 0
-17 550 0
18 -551 0
-18 551 0
19 -552 0
-19 552 0
20 -553 0
-20 553 0
21 -554 0
-21 554 0
22 -555 0
-22 555 0
23 -556 0
-23 556 0
24 -557 0
-24 557 0
25 -558 0
-25 558 0
26 -559 0
-26 559 0
27 -560 0
-27 560 0
28 -561 0
-28 561 0
29 -562 0
-29 562 0
30 -563 0
-30 563 0
31 -564 0
-31 564 0
32 -565 0
-32 565 0
33 -566 0
-33 566 0
34 -567 0
-34 567 0
35 -568 0
-35 568 0
36 -569 0
-36 569 0
37 -570 0
-37 570 0
38 -571 0
-38 571 0
39 -572 0
-39 572 0
40 -573 0
-40 573 0
41 -574 0
-41 574 0
42 -575 0
-42 575 0
43 -576 0
-43 576 0
44 -577 0
-44 577 0
45 -578 0
-45 578 0
14 -579 0
-14 579 0
15 -580 0
-15 580 0
16 -581 0
-16 581 0
17 -582 0
-17 582 0
18 -583 0
-18 583 0
19 -584 0
-19 584 0
20 -585 0
-20 585 0
21 -586 0
-21 586 0
22 -587 0
-22 587 0
23 -588 0
-23 588 0
24 -589 0
-24 589 0
25 -590 0
-25 590 0
26 -591 0
-26 591 0
27 -592 0
-27 592 0
28 -593 0
-28 593 0
29 -594 0
-29 594 0
30 -595 0
-30 595 0
31 -596 0
-31 596 0
32 -597 0
-32 597 0
33 -598 0
-33 598 0
34 -599 0
-34 599 0
35 -600 0
-35 600 0
36 -601 0
-36 601 0
37 -602 0
-37 602 0
38 -603 0
-38 603 0
39 -604 0
-39 604 0
40 -605 0
-40 605 0
41 -606 0
-41 606 0
42 -607 0
-42 607 0
43 -608 0
-43 608 0
44 -609 0
-44 609 0
45 -610 0
-45 610 0
c goto_symex::\guard#1 1
c goto_symex::\guard#2 2
c goto_symex::\guard#3 4
c goto_symex::\guard#4 6
c goto_symex::\guard#5 8
c goto_symex::\guard#6 10
c goto_symex::\guard#7 12
c symex::io::1 611 612 613 614 615 616 617 618 619 620 621 622 623 624 625 626 627 628 629 630 631 632 633 634 635 636 637 638 639 640 641 642
c symex::args::0 547 548 549 550 551 552 553 554 555 556 557 558 559 560 561 562 563 564 565 566 567 568 569 570 571 572 573 574 575 576 577 578
c __counterSharp_assumeMiss#4 1 FALSE FALSE FALSE FALSE FALSE FALSE FALSE
c testfun::1::x!0@1#4 14 -244 -246 -248 -250 -252 -254 -256 -258 -260 -262 -264 -266 -268 -270 -272 -274 -276 -278 -280 -282 -284 -286 -288 -290 -292 -294 -296 -298 -300 -302 -304
c return'!0#1 611 612 613 614 615 616 617 618 619 620 621 622 623 624 625 626 627 628 629 630 631 632 633 634 635 636 637 638 639 640 641 642
c __CPROVER__start::n!0#2 14 15 16 17 18 19 20 21 22 23 24 25 26 27 28 29 30 31 32 33 34 35 36 37 38 39 40 41 42 43 44 45
c testfun::1::y!0@1#9 531 -8 8 FALSE FALSE FALSE FALSE FALSE FALSE FALSE FALSE FALSE FALSE FALSE FALSE FALSE FALSE FALSE FALSE FALSE FALSE FALSE FALSE FALSE FALSE FALSE FALSE FALSE FALSE FALSE FALSE FALSE
c testfun::n!0@1#1 14 15 16 17 18 19 20 21 22 23 24 25 26 27 28 29 30 31 32 33 34 35 36 37 38 39 40 41 42 43 44 45
c testfun::1::x!0@1#3 -14 -148 -150 -152 -154 -156 -158 -160 -162 -164 -166 -168 -170 -172 -174 -176 -178 -180 -182 -184 -186 -188 -190 -192 -194 -196 -198 -200 -202 -204 -206 -208
c symex::nondet0 14 15 16 17 18 19 20 21 22 23 24 25 26 27 28 29 30 31 32 33 34 35 36 37 38 39 40 41 42 43 44 45
c testfun::1::x!0@1#5 -14 -340 -342 -344 -346 -348 -350 -352 -354 -356 -358 -360 -362 -364 -366 -368 -370 -372 -374 -376 -378 -380 -382 -384 -386 -388 -390 -392 -394 -396 -398 -400
c testfun::1::y!0@1#10 532 533 534 FALSE FALSE FALSE FALSE FALSE FALSE FALSE FALSE FALSE FALSE FALSE FALSE FALSE FALSE FALSE FALSE FALSE FALSE FALSE FALSE FALSE FALSE FALSE FALSE FALSE FALSE FALSE FALSE FALSE
c symex::io::0 579 580 581 582 583 584 585 586 587 588 589 590 591 592 593 594 595 596 597 598 599 600 601 602 603 604 605 606 607 608 609 610
c testfun::1::x!0@1#6 14 -436 -438 -440 -442 -444 -446 -448 -450 -452 -454 -456 -458 -460 -462 -464 -466 -468 -470 -472 -474 -476 -478 -480 -482 -484 -486 -488 -490 -492 -494 -496
c testfun::1::y!0@1#8 10 FALSE TRUE FALSE FALSE FALSE FALSE FALSE FALSE FALSE FALSE FALSE FALSE FALSE FALSE FALSE FALSE FALSE FALSE FALSE FALSE FALSE FALSE FALSE FALSE FALSE FALSE FALSE FALSE FALSE FALSE FALSE
c testfun::1::y!0@1#11 535 536 537 FALSE FALSE FALSE FALSE FALSE FALSE FALSE FALSE FALSE FALSE FALSE FALSE FALSE FALSE FALSE FALSE FALSE FALSE FALSE FALSE FALSE FALSE FALSE FALSE FALSE FALSE FALSE FALSE FALSE
c testfun::1::x!0@1#2 14 15 16 17 18 19 20 21 22 23 24 25 26 27 28 29 30 31 32 33 34 35 36 37 38 39 40 41 42 43 44 45
c testfun::1::y!0@1#12 538 539 540 FALSE FALSE FALSE FALSE FALSE FALSE FALSE FALSE FALSE FALSE FALSE FALSE FALSE FALSE FALSE FALSE FALSE FALSE FALSE FALSE FALSE FALSE FALSE FALSE FALSE FALSE FALSE FALSE FALSE

